Optimal - objective value 457.00000000
      0 x_0_0                    1                       0
      7 x_1_1                    1                       0
     16 x_2_4                    1                       0
     23 x_3_5                    1                       0
     27 x_4_3                    1                       0
     32 x_5_2                    1                       0
     36 y_0_0_1_1                1                      41
     44 y_0_0_2_4                1                      16
     50 y_0_0_3_5                1                       6
     53 y_0_0_4_3                1                      96
     57 y_0_0_5_2                1                      18
    209 y_1_1_2_4                1                      45
    215 y_1_1_3_5                1                      18
    218 y_1_1_4_3                1                      48
    222 y_1_1_5_2                1                      14
    370 y_2_4_3_5                1                      35
    374 y_2_4_4_3                1                      12
    378 y_2_4_5_2                1                      38
    449 y_3_5_4_3                1                       6
    453 y_3_5_5_2                1                      28
    473 y_4_3_5_2                1                      36
